8 8 1
3 3 3 9 5 7 6 9 3 1 5 4 6 6 4 3 1 3 3 1 5 3
3 3 3 2 4 3 5 4 3 2 4 4 3 6 2 3 1 3 4 4 5 5
3 3 2 2 3 3 5 5 3 2 7 3 4 4 3 3 1 11 2 7 5 4
3 2 3 5 4 6 3 1 5 2 3 6 4 3 1 12 2 9 5 13
3 3 3 9 5 7 6 9 3 1 5 4 6 6 4 3 1 3 3 1 5 3
3 3 3 2 4 3 5 4 3 2 4 4 3 6 2 3 1 3 4 4 5 5
3 3 2 2 3 3 5 5 3 2 7 3 4 4 3 3 1 11 2 7 5 4
3 2 3 5 4 6 3 1 5 2 3 6 4 3 1 12 2 9 5 13